Route #1: 1 46 30 6 37 48 22 70 22 1 
Route #2: 1 47 9 20 54 15 20 36 8 1 
Route #3: 1 59 11 32 11 40 10 33 13 1 
Route #4: 1 5 53 28 6 21 38 6 1 
Route #5: 1 18 52 1 
Route #6: 1 27 39 12 67 66 39 1 
Route #7: 1 68 35 20 14 20 55 20 1 
Route #8: 1 34 64 24 50 25 19 51 33 1 
Route #9: 1 64 17 4 45 33 26 33 41 1 
Route #10: 1 2 43 42 44 2 63 23 2 1 
Route #11: 1 69 3 5 49 6 58 16 6 1 
Route #12: 1 31 22 62 22 29 2 7 1 
Cost 1042.0
